Minimize
  - 3 y_0 - 4 y_1 - 4 y_2 - 3 y_3 - 3 y_4 - 5 y_5 - 3 y_6 - 3 y_7 - 5 y_8
   - 4 y_9 - 3 y_10 - 4 y_11 - 5 y_12 - 6 y_13 - 2 y_14 - 5 y_15 - 5 y_16
   - 5 y_17 - 6 y_18 - 4 y_19 - 3 y_20 - 3 y_21 - 3 y_22 - 2 y_23 - 4 y_24
   - 4 y_25 - 5 y_26 - 6 y_27 - 3 y_28 - 2 y_29 - y_30 - y_31 - 2 y_32
   - 7 y_33 - 5 y_34 - 3 y_35 - 6 y_36 - 6 y_37 - 4 y_38 - 2 y_39 - y_40
   - 3 y_41 - 6 y_42 - 6 y_43 - 7 y_44 - 4 y_45 - 6 y_46 - 6 y_47 - 5 y_48
   - 2 y_49 - 3 y_50 - 2 y_51 - 4 y_52 - 3 y_53 - 5 y_54 - 3 y_55 - 2 y_56
   - 5 y_57 - 2 y_58 - 2 y_59 - 3 y_60 - 4 y_61 - y_62 - 4 y_63 - y_64
   - 6 y_65 - 2 y_66 - 6 y_67 - 4 y_69 - 2 y_70 - 5 y_71 - 5 y_72 - 3 y_73
   - 4 y_74 - 5 y_75 - 5 y_76 - 6 y_77 - 2 y_78 - 4 y_79 - 5 y_80 - 4 y_81
   - 4 y_82 - 2 y_83 - 2 y_84 - 4 y_85 - 4 y_86 - 6 y_87 - 5 y_88 - 4 y_89
   - 4 y_90 - 5 y_91 - 4 y_92 - 2 y_93 - 4 y_94 - 4 y_95 - 5 y_96 - 5 y_97
   - 6 y_98 - 3 y_99 + 385 Constant
Subject To
 c_0: y_16 = 1
 c_1_0: y_0 + y_2 + y_14 + y_50 + y_99 >= 1
 c_1_1: y_1 + y_15 + y_72 + y_81 + y_89 >= 1
 c_1_2: y_0 + y_2 >= 1
 c_1_3: y_3 + y_20 + y_23 + y_82 >= 1
 c_1_4: y_4 + y_7 + y_20 + y_32 + y_59 + y_70 >= 1
 c_1_5: y_5 + y_63 >= 1
 c_1_6: y_6 + y_39 + y_55 + y_58 + y_60 >= 1
 c_1_7: y_4 + y_7 + y_20 + y_74 + y_90 + y_94 >= 1
 c_1_8: y_8 >= 1
 c_1_9: y_9 + y_35 + y_63 >= 1
 c_1_10: y_10 + y_11 + y_22 + y_24 + y_55 + y_73 >= 1
 c_1_11: y_10 + y_11 + y_24 >= 1
 c_1_12: y_12 + y_91 >= 1
 c_1_13: y_13 + y_47 + y_65 + y_75 >= 1
 c_1_14: y_0 + y_14 + y_50 + y_93 + y_99 >= 1
 c_1_15: y_1 + y_15 + y_72 + y_81 + y_89 >= 1
 c_1_16: y_16 >= 1
 c_1_17: y_17 + y_76 >= 1
 c_1_18: y_18 + y_27 + y_33 + y_34 + y_43 + y_67 >= 1
 c_1_19: y_19 + y_69 + y_94 + y_95 >= 1
 c_1_20: y_3 + y_4 + y_7 + y_20 + y_23 >= 1
 c_1_21: y_21 + y_38 + y_79 >= 1
 c_1_22: y_10 + y_22 + y_24 + y_73 >= 1
 c_1_23: y_3 + y_20 + y_23 + y_83 >= 1
 c_1_24: y_10 + y_11 + y_22 + y_24 + y_73 >= 1
 c_1_25: y_25 + y_86 >= 1
 c_1_26: y_26 + y_47 + y_65 + y_72 >= 1
 c_1_27: y_18 + y_27 + y_34 + y_67 >= 1
 c_1_28: y_28 + y_41 + y_53 + y_56 + y_84 >= 1
 c_1_29: y_29 + y_56 >= 1
 c_1_30: y_30 + y_40 + y_49 + y_64 + y_84 >= 1
 c_1_31: y_31 + y_39 + y_51 + y_58 >= 1
 c_1_32: y_4 + y_32 + y_59 + y_70 >= 1
 c_1_33: y_18 + y_33 + y_43 >= 1
 c_1_34: y_18 + y_27 + y_34 + y_57 + y_67 >= 1
 c_1_35: y_9 + y_35 + y_39 + y_51 + y_60 + y_63 + y_93 >= 1
 c_1_36: y_36 + y_37 >= 1
 c_1_37: y_36 + y_37 + y_57 >= 1
 c_1_38: y_21 + y_38 + y_79 >= 1
 c_1_39: y_6 + y_31 + y_35 + y_39 + y_51 + y_58 + y_60 + y_93 >= 1
 c_1_40: y_30 + y_40 + y_64 + y_68 >= 1
 c_1_41: y_28 + y_41 + y_53 + y_56 >= 1
 c_1_42: y_42 + y_44 + y_87 >= 1
 c_1_43: y_18 + y_33 + y_43 >= 1
 c_1_44: y_42 + y_44 + y_87 >= 1
 c_1_45: y_45 + y_82 + y_90 + y_97 >= 1
 c_1_46: y_46 >= 1
 c_1_47: y_13 + y_26 + y_47 + y_65 + y_75 >= 1
 c_1_48: y_48 + y_54 + y_92 >= 1
 c_1_49: y_30 + y_49 + y_56 + y_64 + y_84 >= 1
 c_1_50: y_0 + y_14 + y_50 + y_93 + y_99 >= 1
 c_1_51: y_31 + y_35 + y_39 + y_51 + y_58 + y_60 + y_93 >= 1
 c_1_52: y_52 + y_85 + y_91 >= 1
 c_1_53: y_28 + y_41 + y_53 + y_56 + y_84 >= 1
 c_1_54: y_48 + y_54 + y_86 >= 1
 c_1_55: y_6 + y_10 + y_55 >= 1
 c_1_56: y_28 + y_29 + y_41 + y_49 + y_53 + y_56 + y_84 >= 1
 c_1_57: y_34 + y_37 + y_57 >= 1
 c_1_58: y_6 + y_31 + y_39 + y_51 + y_58 + y_60 + y_93 >= 1
 c_1_59: y_4 + y_32 + y_59 + y_70 >= 1
 c_1_60: y_6 + y_35 + y_39 + y_51 + y_58 + y_60 >= 1
 c_1_61: y_61 + y_97 >= 1
 c_1_62: y_62 + y_83 >= 1
 c_1_63: y_5 + y_9 + y_35 + y_63 >= 1
 c_1_64: y_30 + y_40 + y_49 + y_64 + y_68 >= 1
 c_1_65: y_13 + y_26 + y_47 + y_65 >= 1
 c_1_66: y_66 + y_73 >= 1
 c_1_67: y_18 + y_27 + y_34 + y_67 >= 1
 c_1_68: y_40 + y_64 + y_68 >= 1
 c_1_69: y_19 + y_69 + y_94 + y_95 >= 1
 c_1_70: y_4 + y_32 + y_59 + y_70 >= 1
 c_1_71: y_71 >= 1
 c_1_72: y_1 + y_15 + y_26 + y_72 >= 1
 c_1_73: y_10 + y_22 + y_24 + y_66 + y_73 >= 1
 c_1_74: y_7 + y_74 + y_90 + y_94 >= 1
 c_1_75: y_13 + y_47 + y_75 >= 1
 c_1_76: y_17 + y_76 + y_92 >= 1
 c_1_77: y_77 + y_80 + y_88 + y_98 >= 1
 c_1_78: y_78 >= 1
 c_1_79: y_21 + y_38 + y_79 >= 1
 c_1_80: y_77 + y_80 + y_88 + y_98 >= 1
 c_1_81: y_1 + y_15 + y_81 + y_89 >= 1
 c_1_82: y_3 + y_45 + y_82 + y_90 >= 1
 c_1_83: y_23 + y_62 + y_83 >= 1
 c_1_84: y_28 + y_30 + y_49 + y_53 + y_56 + y_84 >= 1
 c_1_85: y_52 + y_85 >= 1
 c_1_86: y_25 + y_54 + y_86 >= 1
 c_1_87: y_42 + y_44 + y_87 >= 1
 c_1_88: y_77 + y_80 + y_88 + y_98 >= 1
 c_1_89: y_1 + y_15 + y_81 + y_89 >= 1
 c_1_90: y_7 + y_45 + y_74 + y_82 + y_90 >= 1
 c_1_91: y_12 + y_52 + y_91 >= 1
 c_1_92: y_48 + y_76 + y_92 >= 1
 c_1_93: y_14 + y_35 + y_39 + y_50 + y_51 + y_58 + y_93 + y_99 >= 1
 c_1_94: y_7 + y_19 + y_69 + y_74 + y_94 + y_95 >= 1
 c_1_95: y_19 + y_69 + y_94 + y_95 >= 1
 c_1_96: y_96 >= 1
 c_1_97: y_45 + y_61 + y_97 >= 1
 c_1_98: y_77 + y_80 + y_88 + y_98 >= 1
 c_1_99: y_0 + y_14 + y_50 + y_93 + y_99 >= 1
Bounds
 Constant = 1
Binaries
 y_0 y_1 y_2 y_3 y_4 y_5 y_6 y_7 y_8 y_9 y_10 y_11 y_12 y_13 y_14 y_15 y_16
 y_17 y_18 y_19 y_20 y_21 y_22 y_23 y_24 y_25 y_26 y_27 y_28 y_29 y_30 y_31
 y_32 y_33 y_34 y_35 y_36 y_37 y_38 y_39 y_40 y_41 y_42 y_43 y_44 y_45 y_46
 y_47 y_48 y_49 y_50 y_51 y_52 y_53 y_54 y_55 y_56 y_57 y_58 y_59 y_60 y_61
 y_62 y_63 y_64 y_65 y_66 y_67 y_68 y_69 y_70 y_71 y_72 y_73 y_74 y_75 y_76
 y_77 y_78 y_79 y_80 y_81 y_82 y_83 y_84 y_85 y_86 y_87 y_88 y_89 y_90 y_91
 y_92 y_93 y_94 y_95 y_96 y_97 y_98 y_99
End
